GLPSOL--GLPK LP/MIP Solver 5.0
Parameter(s) specified in the command line:
 --lp ../modeles/15_214.lp --log 15_214.log
Reading problem data from '../modeles/15_214.lp'...
3271 rows, 6450 columns, 22515 non-zeros
3210 integer variables, all of which are binary
9742 lines were read
GLPK Integer Optimizer 5.0
3271 rows, 6450 columns, 22515 non-zeros
3210 integer variables, all of which are binary
Preprocessing...
3150 constraint coefficient(s) were reduced
3271 rows, 6435 columns, 22500 non-zeros
3210 integer variables, all of which are binary
Scaling...
 A: min|aij| =  3.494e-04  max|aij| =  4.000e+00  ratio =  1.145e+04
GM: min|aij| =  9.667e-02  max|aij| =  1.034e+01  ratio =  1.070e+02
EQ: min|aij| =  9.346e-03  max|aij| =  1.000e+00  ratio =  1.070e+02
2N: min|aij| =  7.812e-03  max|aij| =  1.745e+00  ratio =  2.234e+02
Constructing initial basis...
Size of triangular part is 3271
Solving LP relaxation...
GLPK Simplex Optimizer 5.0
3271 rows, 6435 columns, 22500 non-zeros
      0: obj =   3.000000000e+01 inf =   7.450e+01 (31)
    224: obj =   7.991525794e-02 inf =   0.000e+00 (0)
*   796: obj =  -3.871408792e+00 inf =   1.665e-15 (0) 1
OPTIMAL LP SOLUTION FOUND
Integer optimization begins...
Long-step dual simplex will be used
+   796: mip =     not found yet >=              -inf        (1; 0)
+   948: >>>>>  -3.871408792e+00 >=  -3.871408792e+00 < 0.1% (150; 0)
+   948: mip =  -3.871408792e+00 >=     tree is empty   0.0% (0; 299)
INTEGER OPTIMAL SOLUTION FOUND
Time used:   1.1 secs
Memory used: 9.5 Mb (9966979 bytes)
